c Random generated cnf formula, satisfiable: true
p cnf 10 50
5 -8 -1 0
3 -6 -1 0
-3 6 -1 0
8 9 7 0
-4 -1 6 0
-2 -6 -5 0
8 2 -10 0
3 -7 -10 0
9 -2 6 0
2 10 -9 0
9 -3 -4 0
10 -6 7 0
3 -10 -2 0
-2 7 -10 0
3 -6 -5 0
9 -4 -5 0
-5 -2 1 0
-3 4 -6 0
-7 4 5 0
8 -2 -10 0
-6 -8 9 0
-1 6 9 0
-4 5 10 0
7 -4 2 0
-7 -3 5 0
4 5 -7 0
8 -2 5 0
-2 8 -10 0
-4 1 -2 0
10 -9 4 0
5 -6 -2 0
10 2 6 0
-9 -4 7 0
2 5 -7 0
6 8 -3 0
9 1 2 0
-8 4 5 0
8 -9 5 0
-4 5 7 0
8 -7 -9 0
3 -6 9 0
10 -1 3 0
-2 -1 -3 0
9 -7 -1 0
7 6 10 0
5 8 3 0
10 -3 2 0
4 1 -6 0
-1 -4 -2 0
3 -5 -6 0
